c Reduced graph for r11 generated by Cyril Grelier
p edge 207 2233
e 1 2
e 1 3
e 1 5
e 1 7
e 1 9
e 1 11
e 1 13
e 1 14
e 1 16
e 1 19
e 1 23
e 1 25
e 1 31
e 1 33
e 1 35
e 1 46
e 1 54
e 1 59
e 1 67
e 1 68
e 1 69
e 1 70
e 1 103
e 1 104
e 1 144
e 1 190
e 2 4
e 2 6
e 2 8
e 2 10
e 2 12
e 2 13
e 2 14
e 2 20
e 2 22
e 2 24
e 2 26
e 2 31
e 2 34
e 2 36
e 2 46
e 2 55
e 2 60
e 2 61
e 2 67
e 2 68
e 2 69
e 2 70
e 2 103
e 2 104
e 2 190
e 3 4
e 3 5
e 3 7
e 3 9
e 3 11
e 3 15
e 3 16
e 3 19
e 3 23
e 3 25
e 3 32
e 3 33
e 3 35
e 3 47
e 3 48
e 3 54
e 3 59
e 3 71
e 3 72
e 3 73
e 3 74
e 3 105
e 3 106
e 3 143
e 3 144
e 4 6
e 4 8
e 4 10
e 4 12
e 4 15
e 4 20
e 4 22
e 4 24
e 4 26
e 4 32
e 4 34
e 4 36
e 4 47
e 4 48
e 4 55
e 4 60
e 4 61
e 4 71
e 4 72
e 4 73
e 4 74
e 4 105
e 4 106
e 4 143
e 5 6
e 5 7
e 5 9
e 5 11
e 5 16
e 5 17
e 5 18
e 5 19
e 5 23
e 5 25
e 5 33
e 5 35
e 5 37
e 5 52
e 5 54
e 5 59
e 5 81
e 5 82
e 5 83
e 5 116
e 5 117
e 5 118
e 5 144
e 5 195
e 6 8
e 6 10
e 6 12
e 6 17
e 6 18
e 6 20
e 6 22
e 6 24
e 6 26
e 6 34
e 6 36
e 6 37
e 6 52
e 6 55
e 6 60
e 6 61
e 6 81
e 6 82
e 6 83
e 6 116
e 6 117
e 6 118
e 6 195
e 7 8
e 7 9
e 7 11
e 7 16
e 7 19
e 7 21
e 7 23
e 7 25
e 7 33
e 7 35
e 7 54
e 7 56
e 7 57
e 7 59
e 7 87
e 7 88
e 7 89
e 7 90
e 7 123
e 7 124
e 7 125
e 7 144
e 7 158
e 8 10
e 8 12
e 8 20
e 8 21
e 8 22
e 8 24
e 8 26
e 8 34
e 8 36
e 8 55
e 8 56
e 8 57
e 8 60
e 8 61
e 8 87
e 8 88
e 8 89
e 8 90
e 8 123
e 8 124
e 8 125
e 8 158
e 9 10
e 9 11
e 9 16
e 9 19
e 9 23
e 9 25
e 9 27
e 9 28
e 9 33
e 9 35
e 9 44
e 9 54
e 9 59
e 9 63
e 9 64
e 9 98
e 9 99
e 9 100
e 9 139
e 9 140
e 9 144
e 9 198
e 10 12
e 10 20
e 10 22
e 10 24
e 10 26
e 10 27
e 10 28
e 10 34
e 10 36
e 10 44
e 10 55
e 10 60
e 10 61
e 10 63
e 10 64
e 10 98
e 10 99
e 10 100
e 10 139
e 10 140
e 10 198
e 11 12
e 11 16
e 11 19
e 11 23
e 11 25
e 11 29
e 11 30
e 11 33
e 11 35
e 11 45
e 11 54
e 11 59
e 11 65
e 11 66
e 11 101
e 11 102
e 11 141
e 11 142
e 11 144
e 11 167
e 11 199
e 12 20
e 12 22
e 12 24
e 12 26
e 12 29
e 12 30
e 12 34
e 12 36
e 12 45
e 12 55
e 12 60
e 12 61
e 12 65
e 12 66
e 12 101
e 12 102
e 12 141
e 12 142
e 12 167
e 12 199
e 13 14
e 13 15
e 13 17
e 13 27
e 13 29
e 13 31
e 13 40
e 13 42
e 13 46
e 13 49
e 13 51
e 13 67
e 13 68
e 13 69
e 13 70
e 13 75
e 13 85
e 13 91
e 13 93
e 13 103
e 13 104
e 13 168
e 13 190
e 14 18
e 14 21
e 14 28
e 14 30
e 14 31
e 14 38
e 14 39
e 14 41
e 14 43
e 14 46
e 14 50
e 14 67
e 14 68
e 14 69
e 14 70
e 14 76
e 14 86
e 14 92
e 14 94
e 14 103
e 14 104
e 14 190
e 15 17
e 15 27
e 15 29
e 15 32
e 15 40
e 15 42
e 15 47
e 15 48
e 15 49
e 15 51
e 15 71
e 15 72
e 15 73
e 15 74
e 15 75
e 15 85
e 15 91
e 15 93
e 15 105
e 15 106
e 15 143
e 15 168
e 16 19
e 16 23
e 16 25
e 16 33
e 16 35
e 16 54
e 16 59
e 16 78
e 16 79
e 16 110
e 16 111
e 16 112
e 16 113
e 16 114
e 16 144
e 16 149
e 16 150
e 16 151
e 16 174
e 17 18
e 17 27
e 17 29
e 17 37
e 17 40
e 17 42
e 17 49
e 17 51
e 17 52
e 17 75
e 17 81
e 17 82
e 17 83
e 17 85
e 17 91
e 17 93
e 17 116
e 17 117
e 17 118
e 17 168
e 17 195
e 18 21
e 18 28
e 18 30
e 18 37
e 18 38
e 18 39
e 18 41
e 18 43
e 18 50
e 18 52
e 18 76
e 18 81
e 18 82
e 18 83
e 18 86
e 18 92
e 18 94
e 18 116
e 18 117
e 18 118
e 18 195
e 19 20
e 19 23
e 19 25
e 19 33
e 19 35
e 19 38
e 19 53
e 19 54
e 19 59
e 19 84
e 19 119
e 19 120
e 19 121
e 19 122
e 19 144
e 19 156
e 19 176
e 19 201
e 20 22
e 20 24
e 20 26
e 20 34
e 20 36
e 20 38
e 20 53
e 20 55
e 20 60
e 20 61
e 20 84
e 20 119
e 20 120
e 20 121
e 20 122
e 20 156
e 20 176
e 20 201
e 21 28
e 21 30
e 21 38
e 21 39
e 21 41
e 21 43
e 21 50
e 21 56
e 21 57
e 21 76
e 21 86
e 21 87
e 21 88
e 21 89
e 21 90
e 21 92
e 21 94
e 21 123
e 21 124
e 21 125
e 21 158
e 22 24
e 22 26
e 22 34
e 22 36
e 22 39
e 22 55
e 22 58
e 22 60
e 22 61
e 22 126
e 22 127
e 22 128
e 22 129
e 22 130
e 22 159
e 22 160
e 22 161
e 22 202
e 23 24
e 23 25
e 23 33
e 23 35
e 23 40
e 23 41
e 23 54
e 23 59
e 23 62
e 23 95
e 23 96
e 23 132
e 23 133
e 23 134
e 23 144
e 23 164
e 23 188
e 24 26
e 24 34
e 24 36
e 24 40
e 24 41
e 24 55
e 24 60
e 24 61
e 24 62
e 24 95
e 24 96
e 24 132
e 24 133
e 24 134
e 24 164
e 24 188
e 25 26
e 25 33
e 25 35
e 25 42
e 25 43
e 25 54
e 25 59
e 25 97
e 25 135
e 25 136
e 25 137
e 25 138
e 25 144
e 25 165
e 25 166
e 25 189
e 26 34
e 26 36
e 26 42
e 26 43
e 26 55
e 26 60
e 26 61
e 26 97
e 26 135
e 26 136
e 26 137
e 26 138
e 26 165
e 26 166
e 26 189
e 27 28
e 27 29
e 27 40
e 27 42
e 27 44
e 27 49
e 27 51
e 27 63
e 27 64
e 27 75
e 27 85
e 27 91
e 27 93
e 27 98
e 27 99
e 27 100
e 27 139
e 27 140
e 27 168
e 27 198
e 28 30
e 28 38
e 28 39
e 28 41
e 28 43
e 28 44
e 28 50
e 28 63
e 28 64
e 28 76
e 28 86
e 28 92
e 28 94
e 28 98
e 28 99
e 28 100
e 28 139
e 28 140
e 28 198
e 29 30
e 29 40
e 29 42
e 29 45
e 29 49
e 29 51
e 29 65
e 29 66
e 29 75
e 29 85
e 29 91
e 29 93
e 29 101
e 29 102
e 29 141
e 29 142
e 29 167
e 29 168
e 29 199
e 30 38
e 30 39
e 30 41
e 30 43
e 30 45
e 30 50
e 30 65
e 30 66
e 30 76
e 30 86
e 30 92
e 30 94
e 30 101
e 30 102
e 30 141
e 30 142
e 30 167
e 30 199
e 31 32
e 31 37
e 31 44
e 31 45
e 31 46
e 31 53
e 31 58
e 31 62
e 31 67
e 31 68
e 31 69
e 31 70
e 31 77
e 31 80
e 31 103
e 31 104
e 31 107
e 31 131
e 31 190
e 31 191
e 32 37
e 32 44
e 32 45
e 32 47
e 32 48
e 32 53
e 32 58
e 32 62
e 32 71
e 32 72
e 32 73
e 32 74
e 32 77
e 32 80
e 32 105
e 32 106
e 32 107
e 32 131
e 32 143
e 32 191
e 33 34
e 33 35
e 33 49
e 33 50
e 33 54
e 33 59
e 33 77
e 33 108
e 33 109
e 33 144
e 33 146
e 33 147
e 33 148
e 33 173
e 34 36
e 34 49
e 34 50
e 34 55
e 34 60
e 34 61
e 34 77
e 34 108
e 34 109
e 34 146
e 34 147
e 34 148
e 34 173
e 35 36
e 35 51
e 35 54
e 35 59
e 35 80
e 35 115
e 35 144
e 35 152
e 35 153
e 35 154
e 35 155
e 35 175
e 35 194
e 36 51
e 36 55
e 36 60
e 36 61
e 36 80
e 36 115
e 36 152
e 36 153
e 36 154
e 36 155
e 36 175
e 36 194
e 37 44
e 37 45
e 37 52
e 37 53
e 37 58
e 37 62
e 37 77
e 37 80
e 37 81
e 37 82
e 37 83
e 37 107
e 37 116
e 37 117
e 37 118
e 37 131
e 37 191
e 37 195
e 38 39
e 38 41
e 38 43
e 38 50
e 38 53
e 38 76
e 38 84
e 38 86
e 38 92
e 38 94
e 38 119
e 38 120
e 38 121
e 38 122
e 38 156
e 38 176
e 38 201
e 39 41
e 39 43
e 39 50
e 39 58
e 39 76
e 39 86
e 39 92
e 39 94
e 39 126
e 39 127
e 39 128
e 39 129
e 39 130
e 39 159
e 39 160
e 39 161
e 39 202
e 40 41
e 40 42
e 40 49
e 40 51
e 40 62
e 40 75
e 40 85
e 40 91
e 40 93
e 40 95
e 40 96
e 40 132
e 40 133
e 40 134
e 40 164
e 40 168
e 40 188
e 41 43
e 41 50
e 41 62
e 41 76
e 41 86
e 41 92
e 41 94
e 41 95
e 41 96
e 41 132
e 41 133
e 41 134
e 41 164
e 41 188
e 42 43
e 42 49
e 42 51
e 42 75
e 42 85
e 42 91
e 42 93
e 42 97
e 42 135
e 42 136
e 42 137
e 42 138
e 42 165
e 42 166
e 42 168
e 42 189
e 43 50
e 43 76
e 43 86
e 43 92
e 43 94
e 43 97
e 43 135
e 43 136
e 43 137
e 43 138
e 43 165
e 43 166
e 43 189
e 44 45
e 44 53
e 44 58
e 44 62
e 44 63
e 44 64
e 44 77
e 44 80
e 44 98
e 44 99
e 44 100
e 44 107
e 44 131
e 44 139
e 44 140
e 44 191
e 44 198
e 45 53
e 45 58
e 45 62
e 45 65
e 45 66
e 45 77
e 45 80
e 45 101
e 45 102
e 45 107
e 45 131
e 45 141
e 45 142
e 45 167
e 45 191
e 45 199
e 46 47
e 46 56
e 46 63
e 46 65
e 46 67
e 46 68
e 46 69
e 46 70
e 46 78
e 46 84
e 46 95
e 46 103
e 46 104
e 46 108
e 46 115
e 46 157
e 46 190
e 46 200
e 47 48
e 47 56
e 47 63
e 47 65
e 47 71
e 47 72
e 47 73
e 47 74
e 47 78
e 47 84
e 47 95
e 47 105
e 47 106
e 47 108
e 47 115
e 47 143
e 47 157
e 47 200
e 48 52
e 48 57
e 48 64
e 48 66
e 48 71
e 48 72
e 48 73
e 48 74
e 48 79
e 48 96
e 48 97
e 48 105
e 48 106
e 48 109
e 48 143
e 48 145
e 48 162
e 48 163
e 49 50
e 49 51
e 49 75
e 49 77
e 49 85
e 49 91
e 49 93
e 49 108
e 49 109
e 49 146
e 49 147
e 49 148
e 49 168
e 49 173
e 50 76
e 50 77
e 50 86
e 50 92
e 50 94
e 50 108
e 50 109
e 50 146
e 50 147
e 50 148
e 50 173
e 51 75
e 51 80
e 51 85
e 51 91
e 51 93
e 51 115
e 51 152
e 51 153
e 51 154
e 51 155
e 51 168
e 51 175
e 51 194
e 52 57
e 52 64
e 52 66
e 52 79
e 52 81
e 52 82
e 52 83
e 52 96
e 52 97
e 52 109
e 52 116
e 52 117
e 52 118
e 52 145
e 52 162
e 52 163
e 52 195
e 53 58
e 53 62
e 53 77
e 53 80
e 53 84
e 53 107
e 53 119
e 53 120
e 53 121
e 53 122
e 53 131
e 53 156
e 53 176
e 53 191
e 53 201
e 54 55
e 54 59
e 54 85
e 54 86
e 54 144
e 54 157
e 54 177
e 54 178
e 54 179
e 54 180
e 54 196
e 55 60
e 55 61
e 55 85
e 55 86
e 55 157
e 55 177
e 55 178
e 55 179
e 55 180
e 55 196
e 56 57
e 56 63
e 56 65
e 56 78
e 56 84
e 56 87
e 56 88
e 56 89
e 56 90
e 56 95
e 56 108
e 56 115
e 56 123
e 56 124
e 56 125
e 56 157
e 56 158
e 56 200
e 57 64
e 57 66
e 57 79
e 57 87
e 57 88
e 57 89
e 57 90
e 57 96
e 57 97
e 57 109
e 57 123
e 57 124
e 57 125
e 57 145
e 57 158
e 57 162
e 57 163
e 58 62
e 58 77
e 58 80
e 58 107
e 58 126
e 58 127
e 58 128
e 58 129
e 58 130
e 58 131
e 58 159
e 58 160
e 58 161
e 58 191
e 58 202
e 59 60
e 59 91
e 59 92
e 59 144
e 59 162
e 59 181
e 59 182
e 59 183
e 59 203
e 59 207
e 60 61
e 60 91
e 60 92
e 60 162
e 60 181
e 60 182
e 60 183
e 60 203
e 60 207
e 61 93
e 61 94
e 61 131
e 61 163
e 61 184
e 61 185
e 61 186
e 61 187
e 61 197
e 62 77
e 62 80
e 62 95
e 62 96
e 62 107
e 62 131
e 62 132
e 62 133
e 62 134
e 62 164
e 62 188
e 62 191
e 63 64
e 63 65
e 63 78
e 63 84
e 63 95
e 63 98
e 63 99
e 63 100
e 63 108
e 63 115
e 63 139
e 63 140
e 63 157
e 63 198
e 63 200
e 64 66
e 64 79
e 64 96
e 64 97
e 64 98
e 64 99
e 64 100
e 64 109
e 64 139
e 64 140
e 64 145
e 64 162
e 64 163
e 64 198
e 65 66
e 65 78
e 65 84
e 65 95
e 65 101
e 65 102
e 65 108
e 65 115
e 65 141
e 65 142
e 65 157
e 65 167
e 65 199
e 65 200
e 66 79
e 66 96
e 66 97
e 66 101
e 66 102
e 66 109
e 66 141
e 66 142
e 66 145
e 66 162
e 66 163
e 66 167
e 66 199
e 67 68
e 67 69
e 67 70
e 67 98
e 67 103
e 67 104
e 67 110
e 67 119
e 67 126
e 67 146
e 67 152
e 67 169
e 67 181
e 67 184
e 67 190
e 67 204
e 68 69
e 68 70
e 68 71
e 68 81
e 68 103
e 68 104
e 68 111
e 68 120
e 68 127
e 68 132
e 68 135
e 68 153
e 68 177
e 68 182
e 68 190
e 69 70
e 69 72
e 69 87
e 69 101
e 69 103
e 69 104
e 69 112
e 69 121
e 69 133
e 69 147
e 69 154
e 69 170
e 69 185
e 69 190
e 70 74
e 70 83
e 70 90
e 70 100
e 70 102
e 70 103
e 70 104
e 70 114
e 70 130
e 70 138
e 70 180
e 70 190
e 70 206
e 71 72
e 71 73
e 71 74
e 71 81
e 71 105
e 71 106
e 71 111
e 71 120
e 71 127
e 71 132
e 71 135
e 71 143
e 71 153
e 71 177
e 71 182
e 72 73
e 72 74
e 72 87
e 72 101
e 72 105
e 72 106
e 72 112
e 72 121
e 72 133
e 72 143
e 72 147
e 72 154
e 72 170
e 72 185
e 73 74
e 73 88
e 73 105
e 73 106
e 73 113
e 73 128
e 73 134
e 73 136
e 73 143
e 73 148
e 73 171
e 73 178
e 73 183
e 73 186
e 74 83
e 74 90
e 74 100
e 74 102
e 74 105
e 74 106
e 74 114
e 74 130
e 74 138
e 74 143
e 74 180
e 74 206
e 75 76
e 75 85
e 75 91
e 75 93
e 75 107
e 75 145
e 75 168
e 75 169
e 75 170
e 75 171
e 75 172
e 75 192
e 75 193
e 76 86
e 76 92
e 76 94
e 76 107
e 76 145
e 76 169
e 76 170
e 76 171
e 76 172
e 76 192
e 76 193
e 77 80
e 77 107
e 77 108
e 77 109
e 77 131
e 77 146
e 77 147
e 77 148
e 77 173
e 77 191
e 78 79
e 78 84
e 78 95
e 78 108
e 78 110
e 78 111
e 78 112
e 78 113
e 78 114
e 78 115
e 78 149
e 78 150
e 78 151
e 78 157
e 78 174
e 78 200
e 79 96
e 79 97
e 79 109
e 79 110
e 79 111
e 79 112
e 79 113
e 79 114
e 79 145
e 79 149
e 79 150
e 79 151
e 79 162
e 79 163
e 79 174
e 80 107
e 80 115
e 80 131
e 80 152
e 80 153
e 80 154
e 80 155
e 80 175
e 80 191
e 80 194
e 81 82
e 81 83
e 81 111
e 81 116
e 81 117
e 81 118
e 81 120
e 81 127
e 81 132
e 81 135
e 81 153
e 81 177
e 81 182
e 81 195
e 82 83
e 82 89
e 82 99
e 82 116
e 82 117
e 82 118
e 82 122
e 82 129
e 82 137
e 82 155
e 82 172
e 82 179
e 82 187
e 82 195
e 82 205
e 83 90
e 83 100
e 83 102
e 83 114
e 83 116
e 83 117
e 83 118
e 83 130
e 83 138
e 83 180
e 83 195
e 83 206
e 84 95
e 84 108
e 84 115
e 84 119
e 84 120
e 84 121
e 84 122
e 84 156
e 84 157
e 84 176
e 84 200
e 84 201
e 85 86
e 85 91
e 85 93
e 85 157
e 85 168
e 85 177
e 85 178
e 85 179
e 85 180
e 85 196
e 86 92
e 86 94
e 86 157
e 86 177
e 86 178
e 86 179
e 86 180
e 86 196
e 87 88
e 87 89
e 87 90
e 87 101
e 87 112
e 87 121
e 87 123
e 87 124
e 87 125
e 87 133
e 87 147
e 87 154
e 87 158
e 87 170
e 87 185
e 88 89
e 88 90
e 88 113
e 88 123
e 88 124
e 88 125
e 88 128
e 88 134
e 88 136
e 88 148
e 88 158
e 88 171
e 88 178
e 88 183
e 88 186
e 89 90
e 89 99
e 89 122
e 89 123
e 89 124
e 89 125
e 89 129
e 89 137
e 89 155
e 89 158
e 89 172
e 89 179
e 89 187
e 89 205
e 90 100
e 90 102
e 90 114
e 90 123
e 90 124
e 90 125
e 90 130
e 90 138
e 90 158
e 90 180
e 90 206
e 91 92
e 91 93
e 91 162
e 91 168
e 91 181
e 91 182
e 91 183
e 91 203
e 91 207
e 92 94
e 92 162
e 92 181
e 92 182
e 92 183
e 92 203
e 92 207
e 93 94
e 93 131
e 93 163
e 93 168
e 93 184
e 93 185
e 93 186
e 93 187
e 93 197
e 94 131
e 94 163
e 94 184
e 94 185
e 94 186
e 94 187
e 94 197
e 95 96
e 95 108
e 95 115
e 95 132
e 95 133
e 95 134
e 95 157
e 95 164
e 95 188
e 95 200
e 96 97
e 96 109
e 96 132
e 96 133
e 96 134
e 96 145
e 96 162
e 96 163
e 96 164
e 96 188
e 97 109
e 97 135
e 97 136
e 97 137
e 97 138
e 97 145
e 97 162
e 97 163
e 97 165
e 97 166
e 97 189
e 98 99
e 98 100
e 98 110
e 98 119
e 98 126
e 98 139
e 98 140
e 98 146
e 98 152
e 98 169
e 98 181
e 98 184
e 98 198
e 98 204
e 99 100
e 99 122
e 99 129
e 99 137
e 99 139
e 99 140
e 99 155
e 99 172
e 99 179
e 99 187
e 99 198
e 99 205
e 100 102
e 100 114
e 100 130
e 100 138
e 100 139
e 100 140
e 100 180
e 100 198
e 100 206
e 101 102
e 101 112
e 101 121
e 101 133
e 101 141
e 101 142
e 101 147
e 101 154
e 101 167
e 101 170
e 101 185
e 101 199
e 102 114
e 102 130
e 102 138
e 102 141
e 102 142
e 102 167
e 102 180
e 102 199
e 102 206
e 103 104
e 103 106
e 103 117
e 103 124
e 103 139
e 103 141
e 103 150
e 103 156
e 103 160
e 103 190
e 103 197
e 104 118
e 104 125
e 104 140
e 104 142
e 104 151
e 104 161
e 104 166
e 104 173
e 104 190
e 104 193
e 105 106
e 105 116
e 105 123
e 105 143
e 105 149
e 105 159
e 105 164
e 105 165
e 105 175
e 105 192
e 105 196
e 106 117
e 106 124
e 106 139
e 106 141
e 106 143
e 106 150
e 106 156
e 106 160
e 106 197
e 107 131
e 107 145
e 107 169
e 107 170
e 107 171
e 107 172
e 107 191
e 107 192
e 107 193
e 108 109
e 108 115
e 108 146
e 108 147
e 108 148
e 108 157
e 108 173
e 108 200
e 109 145
e 109 146
e 109 147
e 109 148
e 109 162
e 109 163
e 109 173
e 110 111
e 110 112
e 110 113
e 110 114
e 110 119
e 110 126
e 110 146
e 110 149
e 110 150
e 110 151
e 110 152
e 110 169
e 110 174
e 110 181
e 110 184
e 110 204
e 111 112
e 111 113
e 111 114
e 111 120
e 111 127
e 111 132
e 111 135
e 111 149
e 111 150
e 111 151
e 111 153
e 111 174
e 111 177
e 111 182
e 112 113
e 112 114
e 112 121
e 112 133
e 112 147
e 112 149
e 112 150
e 112 151
e 112 154
e 112 170
e 112 174
e 112 185
e 113 114
e 113 128
e 113 134
e 113 136
e 113 148
e 113 149
e 113 150
e 113 151
e 113 171
e 113 174
e 113 178
e 113 183
e 113 186
e 114 130
e 114 138
e 114 149
e 114 150
e 114 151
e 114 174
e 114 180
e 114 206
e 115 152
e 115 153
e 115 154
e 115 155
e 115 157
e 115 175
e 115 194
e 115 200
e 116 117
e 116 118
e 116 123
e 116 149
e 116 159
e 116 164
e 116 165
e 116 175
e 116 192
e 116 195
e 116 196
e 117 118
e 117 124
e 117 139
e 117 141
e 117 150
e 117 156
e 117 160
e 117 195
e 117 197
e 118 125
e 118 140
e 118 142
e 118 151
e 118 161
e 118 166
e 118 173
e 118 193
e 118 195
e 119 120
e 119 121
e 119 122
e 119 126
e 119 146
e 119 152
e 119 156
e 119 169
e 119 176
e 119 181
e 119 184
e 119 201
e 119 204
e 120 121
e 120 122
e 120 127
e 120 132
e 120 135
e 120 153
e 120 156
e 120 176
e 120 177
e 120 182
e 120 201
e 121 122
e 121 133
e 121 147
e 121 154
e 121 156
e 121 170
e 121 176
e 121 185
e 121 201
e 122 129
e 122 137
e 122 155
e 122 156
e 122 172
e 122 176
e 122 179
e 122 187
e 122 201
e 122 205
e 123 124
e 123 125
e 123 149
e 123 158
e 123 159
e 123 164
e 123 165
e 123 175
e 123 192
e 123 196
e 124 125
e 124 139
e 124 141
e 124 150
e 124 156
e 124 158
e 124 160
e 124 197
e 125 140
e 125 142
e 125 151
e 125 158
e 125 161
e 125 166
e 125 173
e 125 193
e 126 127
e 126 128
e 126 129
e 126 130
e 126 146
e 126 152
e 126 159
e 126 160
e 126 161
e 126 169
e 126 181
e 126 184
e 126 202
e 126 204
e 127 128
e 127 129
e 127 130
e 127 132
e 127 135
e 127 153
e 127 159
e 127 160
e 127 161
e 127 177
e 127 182
e 127 202
e 128 129
e 128 130
e 128 134
e 128 136
e 128 148
e 128 159
e 128 160
e 128 161
e 128 171
e 128 178
e 128 183
e 128 186
e 128 202
e 129 130
e 129 137
e 129 155
e 129 159
e 129 160
e 129 161
e 129 172
e 129 179
e 129 187
e 129 202
e 129 205
e 130 138
e 130 159
e 130 160
e 130 161
e 130 180
e 130 202
e 130 206
e 131 163
e 131 184
e 131 185
e 131 186
e 131 187
e 131 191
e 131 197
e 132 133
e 132 134
e 132 135
e 132 153
e 132 164
e 132 177
e 132 182
e 132 188
e 133 134
e 133 147
e 133 154
e 133 164
e 133 170
e 133 185
e 133 188
e 134 136
e 134 148
e 134 164
e 134 171
e 134 178
e 134 183
e 134 186
e 134 188
e 135 136
e 135 137
e 135 138
e 135 153
e 135 165
e 135 166
e 135 177
e 135 182
e 135 189
e 136 137
e 136 138
e 136 148
e 136 165
e 136 166
e 136 171
e 136 178
e 136 183
e 136 186
e 136 189
e 137 138
e 137 155
e 137 165
e 137 166
e 137 172
e 137 179
e 137 187
e 137 189
e 137 205
e 138 165
e 138 166
e 138 180
e 138 189
e 138 206
e 139 140
e 139 141
e 139 150
e 139 156
e 139 160
e 139 197
e 139 198
e 140 142
e 140 151
e 140 161
e 140 166
e 140 173
e 140 193
e 140 198
e 141 142
e 141 150
e 141 156
e 141 160
e 141 167
e 141 197
e 141 199
e 142 151
e 142 161
e 142 166
e 142 167
e 142 173
e 142 193
e 142 199
e 143 158
e 143 167
e 143 174
e 143 176
e 143 188
e 143 189
e 143 194
e 143 203
e 144 168
e 144 191
e 144 200
e 144 204
e 144 205
e 144 206
e 145 162
e 145 163
e 145 169
e 145 170
e 145 171
e 145 172
e 145 192
e 145 193
e 146 147
e 146 148
e 146 152
e 146 169
e 146 173
e 146 181
e 146 184
e 146 204
e 147 148
e 147 154
e 147 170
e 147 173
e 147 185
e 148 171
e 148 173
e 148 178
e 148 183
e 148 186
e 149 150
e 149 151
e 149 159
e 149 164
e 149 165
e 149 174
e 149 175
e 149 192
e 149 196
e 150 151
e 150 156
e 150 160
e 150 174
e 150 197
e 151 161
e 151 166
e 151 173
e 151 174
e 151 193
e 152 153
e 152 154
e 152 155
e 152 169
e 152 175
e 152 181
e 152 184
e 152 194
e 152 204
e 153 154
e 153 155
e 153 175
e 153 177
e 153 182
e 153 194
e 154 155
e 154 170
e 154 175
e 154 185
e 154 194
e 155 172
e 155 175
e 155 179
e 155 187
e 155 194
e 155 205
e 156 160
e 156 176
e 156 197
e 156 201
e 157 177
e 157 178
e 157 179
e 157 180
e 157 196
e 157 200
e 158 167
e 158 174
e 158 176
e 158 188
e 158 189
e 158 194
e 158 203
e 159 160
e 159 161
e 159 164
e 159 165
e 159 175
e 159 192
e 159 196
e 159 202
e 160 161
e 160 197
e 160 202
e 161 166
e 161 173
e 161 193
e 161 202
e 162 163
e 162 181
e 162 182
e 162 183
e 162 203
e 162 207
e 163 184
e 163 185
e 163 186
e 163 187
e 163 197
e 164 165
e 164 175
e 164 188
e 164 192
e 164 196
e 165 166
e 165 175
e 165 189
e 165 192
e 165 196
e 166 173
e 166 189
e 166 193
e 167 174
e 167 176
e 167 188
e 167 189
e 167 194
e 167 199
e 167 203
e 168 191
e 168 200
e 168 204
e 168 205
e 168 206
e 169 170
e 169 171
e 169 172
e 169 181
e 169 184
e 169 192
e 169 193
e 169 204
e 170 171
e 170 172
e 170 185
e 170 192
e 170 193
e 171 172
e 171 178
e 171 183
e 171 186
e 171 192
e 171 193
e 172 179
e 172 187
e 172 192
e 172 193
e 172 205
e 173 193
e 174 176
e 174 188
e 174 189
e 174 194
e 174 203
e 175 192
e 175 194
e 175 196
e 176 188
e 176 189
e 176 194
e 176 201
e 176 203
e 177 178
e 177 179
e 177 180
e 177 182
e 177 196
e 178 179
e 178 180
e 178 183
e 178 186
e 178 196
e 179 180
e 179 187
e 179 196
e 179 205
e 180 196
e 180 206
e 181 182
e 181 183
e 181 184
e 181 203
e 181 204
e 181 207
e 182 183
e 182 203
e 182 207
e 183 186
e 183 203
e 183 207
e 184 185
e 184 186
e 184 187
e 184 197
e 184 204
e 185 186
e 185 187
e 185 197
e 186 187
e 186 197
e 187 197
e 187 205
e 188 189
e 188 194
e 188 203
e 189 194
e 189 203
e 190 195
e 190 198
e 190 199
e 190 201
e 190 202
e 190 207
e 191 200
e 191 204
e 191 205
e 191 206
e 192 193
e 192 196
e 194 203
e 195 198
e 195 199
e 195 201
e 195 202
e 195 207
e 198 199
e 198 201
e 198 202
e 198 207
e 199 201
e 199 202
e 199 207
e 200 204
e 200 205
e 200 206
e 201 202
e 201 207
e 202 207
e 203 207
e 204 205
e 204 206
e 205 206
